Optimal - objective value 32.00000000
     10 x_1_18                  1                       0
     40 x_2_28                  1                       0
     45 x_3_9                   1                       0
     61 x_4_0                   1                       0
     96 x_5_14                  1                       0
    123 x_6_23                  1                       0
    135 x_7_12                  1                       0
    153 x_8_4                   1                       0
    169 x_9_4                   1                       0
    199 x_10_15                 1                       0
    209 x_11_0                  1                       0
    248 x_12_32                 1                      17
